(set-logic QF_LIA)
(declare-fun x0 () Int)
(declare-fun x1 () Int)
(declare-fun x2 () Int)
(declare-fun x3 () Int)
(declare-fun x4 () Int)
(declare-fun x5 () Int)
(declare-fun x6 () Int)
(declare-fun x7 () Int)
(declare-fun x8 () Int)
(declare-fun x9 () Int)
(declare-fun A0 () Bool)
(declare-fun A1 () Bool)
(declare-fun A4 () Bool)
(declare-fun A5 () Bool)
(declare-fun A6 () Bool)
(declare-fun A7 () Bool)
(declare-fun A9 () Bool)
(assert (let ((.def_0 (* 1 x8))) (let ((.def_1 (* 1 x9))) (let ((.def_2 (+ .def_1 .def_0))) (let ((.def_3 (< .def_2 (- 1)))) (let ((.def_4 (not .def_3))) (let ((.def_5 (* 1 x7))) (let ((.def_6 (* (- 1) x5))) (let ((.def_7 (+ .def_6 .def_5))) (let ((.def_8 (< .def_7 1))) (let ((.def_9 (not .def_8))) (let ((.def_10 (and .def_9 .def_4))) (let ((.def_11 (not .def_10))) (let ((.def_12 (* (- 1) x2))) (let ((.def_13 (< .def_12 1))) (let ((.def_14 (and .def_13 A5))) (let ((.def_15 (not .def_14))) (let ((.def_16 (or .def_15 .def_11))) (let ((.def_17 (* (- 1) x9))) (let ((.def_18 (< .def_17 1))) (let ((.def_19 (not .def_18))) (let ((.def_20 (and .def_19 A0))) (let ((.def_21 (not .def_20))) (let ((.def_22 (* 1 x4))) (let ((.def_23 (* 1 x3))) (let ((.def_24 (+ .def_23 .def_22))) (let ((.def_25 (< .def_24 (- 1)))) (let ((.def_26 (not A6))) (let ((.def_27 (and .def_26 .def_25))) (let ((.def_28 (not .def_27))) (let ((.def_29 (and .def_28 .def_21))) (let ((.def_30 (not .def_29))) (let ((.def_31 (or .def_30 .def_16))) (let ((.def_32 (not .def_31))) (let ((.def_33 (< .def_0 (- 1)))) (let ((.def_34 (not .def_33))) (let ((.def_35 (not A5))) (let ((.def_36 (and .def_35 .def_34))) (let ((.def_37 (not A9))) (let ((.def_38 (and .def_37 .def_26))) (let ((.def_39 (not .def_38))) (let ((.def_40 (and .def_39 .def_36))) (let ((.def_41 (* (- 1) x1))) (let ((.def_42 (+ .def_5 .def_41))) (let ((.def_43 (< .def_42 1))) (let ((.def_44 (not .def_43))) (let ((.def_45 (* (- 1) x7))) (let ((.def_46 (+ .def_23 .def_45))) (let ((.def_47 (< .def_46 (- 1)))) (let ((.def_48 (and .def_47 .def_44))) (let ((.def_49 (* (- 1) x4))) (let ((.def_50 (+ .def_17 .def_49))) (let ((.def_51 (< .def_50 (- 1)))) (let ((.def_52 (not .def_51))) (let ((.def_53 (and A1 .def_52))) (let ((.def_54 (not .def_53))) (let ((.def_55 (and .def_54 .def_48))) (let ((.def_56 (not .def_55))) (let ((.def_57 (or .def_56 .def_40))) (let ((.def_58 (not .def_57))) (let ((.def_59 (= .def_58 .def_32))) (let ((.def_60 (* 1 x6))) (let ((.def_61 (* (- 1) x0))) (let ((.def_62 (+ .def_61 .def_60))) (let ((.def_63 (< .def_62 (- 1)))) (let ((.def_64 (not .def_63))) (let ((.def_65 (not A4))) (let ((.def_66 (and .def_65 .def_64))) (let ((.def_67 (* 1 x1))) (let ((.def_68 (< .def_67 (- 1)))) (let ((.def_69 (not .def_68))) (let ((.def_70 (* (- 1) x8))) (let ((.def_71 (< .def_70 (- 1)))) (let ((.def_72 (not .def_71))) (let ((.def_73 (and .def_72 .def_69))) (let ((.def_74 (not .def_73))) (let ((.def_75 (or .def_74 .def_66))) (let ((.def_76 (< .def_60 (- 1)))) (let ((.def_77 (+ .def_1 .def_67))) (let ((.def_78 (< .def_77 (- 1)))) (let ((.def_79 (= .def_78 .def_76))) (let ((.def_80 (or A4 A7))) (let ((.def_81 (and .def_80 .def_79))) (let ((.def_82 (not .def_81))) (let ((.def_83 (and .def_82 .def_75))) (let ((.def_84 (or A5 .def_37))) (let ((.def_85 (+ .def_61 .def_41))) (let ((.def_86 (< .def_85 (- 1)))) (let ((.def_87 (not .def_86))) (let ((.def_88 (or A5 .def_87))) (let ((.def_89 (and .def_88 .def_84))) (let ((.def_90 (not A1))) (let ((.def_91 (< .def_22 1))) (let ((.def_92 (or .def_91 .def_90))) (let ((.def_93 (not .def_92))) (let ((.def_94 (not A7))) (let ((.def_95 (or .def_94 A4))) (let ((.def_96 (and .def_95 .def_93))) (let ((.def_97 (not .def_96))) (let ((.def_98 (and .def_97 .def_89))) (let ((.def_99 (and .def_98 .def_83))) (let ((.def_100 (or .def_99 .def_59))) (let ((.def_101 (not .def_100))) (let ((.def_102 (<= x9 1))) (let ((.def_103 (<= 0 x9))) (let ((.def_104 (<= x8 1))) (let ((.def_105 (<= 0 x8))) (let ((.def_106 (<= x7 1))) (let ((.def_107 (<= 0 x7))) (let ((.def_108 (<= x6 1))) (let ((.def_109 (<= 0 x6))) (let ((.def_110 (<= x5 1))) (let ((.def_111 (<= 0 x5))) (let ((.def_112 (<= x4 1))) (let ((.def_113 (<= 0 x4))) (let ((.def_114 (<= x3 1))) (let ((.def_115 (<= 0 x3))) (let ((.def_116 (<= x2 1))) (let ((.def_117 (<= 0 x2))) (let ((.def_118 (<= x1 1))) (let ((.def_119 (<= 0 x1))) (let ((.def_120 (<= x0 1))) (let ((.def_121 (<= 0 x0))) (let ((.def_122 (and .def_121 .def_120 .def_119 .def_118 .def_117 .def_116 .def_115 .def_114 .def_113 .def_112 .def_111 .def_110 .def_109 .def_108 .def_107 .def_106 .def_105 .def_104 .def_103 .def_102 .def_101))) .def_122))))))))))))))))))))))))))))))))))))))))))))))))))))))))))))))))))))))))))))))))))))))))))))))))))))))))))))))))))))))))))))
(check-sat)
